214
400
320	3
319	1
318	2
317	1
315	3
314	2
313	1
312	4
311	5
310	1
309	1
308	1
307	1
306	2
305	2
304	1
302	3
300	4
299	4
298	4
297	4
296	2
293	3
292	1
291	2
289	1
287	1
286	2
285	2
284	3
283	2
282	2
281	1
280	4
279	2
278	2
277	3
276	1
275	4
274	4
273	2
272	2
271	2
270	5
269	1
266	4
265	4
264	2
263	2
262	3
261	3
260	3
259	2
258	6
257	3
256	1
255	1
253	1
252	4
251	2
250	1
249	7
248	2
247	2
246	1
245	3
243	1
242	5
241	2
240	1
239	3
238	1
237	1
236	1
233	2
232	3
231	2
230	2
229	4
228	3
226	1
225	2
224	2
223	2
222	4
221	2
220	3
219	1
218	1
217	2
216	1
215	3
214	4
213	2
212	2
211	1
210	1
209	1
208	2
207	5
206	2
205	2
204	1
202	2
201	2
200	3
199	2
198	2
196	3
195	1
194	3
193	4
192	4
191	1
190	2
189	1
188	1
187	3
186	1
185	1
184	1
181	3
180	3
179	1
178	1
177	3
176	4
175	1
174	1
173	2
172	1
171	3
170	3
167	1
166	1
165	3
164	3
163	4
162	4
160	3
159	2
158	3
157	2
156	2
155	2
154	2
153	2
152	4
151	2
150	3
149	1
148	4
147	2
146	4
145	1
144	4
143	3
142	1
140	4
139	3
138	2
137	1
136	3
135	4
134	2
133	1
132	5
131	1
130	1
129	1
128	1
127	2
126	2
125	2
124	3
122	4
121	4
120	4
119	3
118	1
117	5
116	1
115	1
114	2
113	5
112	1
111	1
110	1
109	2
108	7
107	1
105	3
104	2
103	1
102	2
101	3
100	1
99	2
98	1
97	1
94	4
92	5
91	4
90	2
89	2
88	4
87	3
86	2
85	2
84	4
83	1
82	1
81	3
80	1
